data/solutions/recovery/wellformed/moderate/flexible/wellformed_moderate_instance53/25.sol
Elapsed time: 0.03
Upper bound: 4310.0
Planning weighted value: 137397.0
C[0]=4310.0
C[1]=4269.0
C[2]=4121.0
C[3]=4031.0
C[4]=3608.0
y[0]=0
y[1]=4
y[2]=4
y[3]=2
y[4]=2
y[5]=1
y[6]=0
y[7]=1
y[8]=3
y[9]=0
y[10]=0
y[11]=3
y[12]=4
y[13]=3
y[14]=4
y[15]=1
y[16]=2
y[17]=1
y[18]=1
y[19]=4
