data/solutions/recovery/wellformed/moderate/flexible/wellformed_moderate_instance53/25.log

Log started (V12.6.3.0) Fri Apr 20 20:56:37 2018

New value for default parallel thread count: 1

Problem '/tmp/tmpj5pfWU.pyomo.lp' read.
Read time = 0.00 sec. (0.03 ticks)

Problem name         : /tmp/tmpj5pfWU.pyomo.lp
Objective sense      : Minimize
Variables            :     107  [Nneg: 1,  Binary: 100,  General Integer: 6]
Objective nonzeros   :       1
Linear constraints   :      51  [Less: 25,  Equal: 26]
  Nonzeros           :    1811
  RHS nonzeros       :      41

Variables            : Min LB: 0.000000         Max UB: 1.000000       
Objective nonzeros   : Min   : 1.000000         Max   : 1.000000       
Linear constraints   :
  Nonzeros           : Min   : 1.000000         Max   : 1636.000       
  RHS nonzeros       : Min   : 1.000000         Max   : 2.000000       
Tried aggregator 2 times.
MIP Presolve eliminated 20 rows and 5 columns.
Aggregator did 6 substitutions.
Reduced MIP has 25 rows, 96 columns, and 271 nonzeros.
Reduced MIP has 95 binaries, 1 generals, 0 SOSs, and 0 indicators.
Presolve time = 0.00 sec. (0.73 ticks)
Found incumbent of value 20339.000000 after 0.00 sec. (0.90 ticks)
Probing time = 0.00 sec. (0.08 ticks)
Cover probing fixed 0 vars, tightened 3 bounds.
Tried aggregator 1 time.
Reduced MIP has 25 rows, 96 columns, and 271 nonzeros.
Reduced MIP has 95 binaries, 1 generals, 0 SOSs, and 0 indicators.
Presolve time = 0.00 sec. (0.19 ticks)
Probing time = 0.00 sec. (0.06 ticks)
Clique table members: 19.
MIP emphasis: balance optimality and feasibility.
MIP search method: dynamic search.
Parallel mode: none, using 1 thread.
Root relaxation solution time = 0.00 sec. (0.07 ticks)

        Nodes                                         Cuts/
   Node  Left     Objective  IInf  Best Integer    Best Bound    ItCnt     Gap

*     0+    0                        20339.0000     1636.0000            91.96%
      0     0     4067.8000     7    20339.0000     4067.8000        5   80.00%
*     0+    0                         4601.0000     4067.8000            11.59%
      0     0     4114.9136    13     4601.0000      Fract: 5       23   10.56%
      0     0     4224.6632    12     4601.0000      Cuts: 10       43    8.18%
      0     0     4274.7162     9     4601.0000       Cuts: 8       55    7.09%
*     0+    0                         4348.0000     4274.7162             1.69%

Repeating presolve.
Tried aggregator 2 times.
MIP Presolve eliminated 2 rows and 34 columns.
MIP Presolve added 1 rows and 1 columns.
Aggregator did 3 substitutions.
Reduced MIP has 21 rows, 60 columns, and 168 nonzeros.
Reduced MIP has 58 binaries, 2 generals, 0 SOSs, and 0 indicators.
Presolve time = 0.00 sec. (0.18 ticks)
Probing time = 0.00 sec. (0.03 ticks)
Tried aggregator 1 time.
MIP Presolve eliminated 1 rows and 1 columns.
MIP Presolve added 1 rows and 1 columns.
Reduced MIP has 21 rows, 60 columns, and 168 nonzeros.
Reduced MIP has 58 binaries, 2 generals, 0 SOSs, and 0 indicators.
Presolve time = 0.00 sec. (0.11 ticks)
Represolve time = 0.00 sec. (0.50 ticks)
Probing time = 0.00 sec. (0.03 ticks)
Clique table members: 14.
MIP emphasis: balance optimality and feasibility.
MIP search method: dynamic search.
Parallel mode: none, using 1 thread.
Root relaxation solution time = 0.00 sec. (0.19 ticks)

        Nodes                                         Cuts/
   Node  Left     Objective  IInf  Best Integer    Best Bound    ItCnt     Gap

*     0+    0                         4348.0000     4274.7162             1.69%
      0     0     4274.7162     9     4348.0000     4274.7162       81    1.69%
      0     0     4304.1427    14     4348.0000       Cuts: 7      111    1.01%
      0     0     4310.0000     7     4348.0000       Cuts: 7      122    0.87%
*     0+    0                         4310.0000     4310.0000             0.00%
      0     0        cutoff           4310.0000     4310.0000      122    0.00%
Elapsed time = 0.01 sec. (7.83 ticks, tree = 0.01 MB, solutions = 4)

Cover cuts applied:  3
Flow cuts applied:  1
Mixed integer rounding cuts applied:  5
Zero-half cuts applied:  2
Gomory fractional cuts applied:  2

Root node processing (before b&c):
  Real time             =    0.01 sec. (7.83 ticks)
Sequential b&c:
  Real time             =    0.00 sec. (0.00 ticks)
                          ------------
Total (root+branch&cut) =    0.01 sec. (7.83 ticks)

Solution pool: 4 solutions saved.

MIP - Integer optimal solution:  Objective =  4.3100000000e+03
Solution time =    0.01 sec.  Iterations = 122  Nodes = 0
Deterministic time = 7.83 ticks  (551.39 ticks/sec)


Incumbent solution written to file '/tmp/tmpyYRh0M.cplex.sol'.
